nbProcess=2;
nbJobs =3;
nbMchs =2;
Process1=[2,2,2];
pidle=[1,2];
EnergyS=[10,30];
TB=[10,15];
x=[
[
[1,1,],
[1,0,],
[1,1,],
],
[
[0,1,],
[1,1,],
[1,1,],
],
];
ptime =[
[
[43,87],
[63,0],
[125,43]
],
[
[0,95],
[53,73],
[135,61]
]
];
power1=[
[
[4.3,3.3,],
[4.4,0,],
[3.6,3.1,],
],
[
[0,4.6,],
[4.4,3.6,],
[4.9,3.1,],
],
];
